nNurses = 66;
nHours = 27;
minHours = 6;
maxHours = 9;
maxConsec = 7;
maxPresence = 27;
demand = [17, 20, 15, 19, 18, 19, 19, 14, 18, 15, 11, 14, 16, 18, 17, 20, 17, 15, 14, 14, 13, 10, 10, 10, 11, 13, 9];
